(declare-const |main__cp':152:170:175:627:635| Int)
(declare-const havoc Int)
(declare-const __VERIFIER_assert__cond___15 Int)
(declare-const |K:165:166:171:623:631| Int)
(declare-const __VERIFIER_assert__cond___16 Int)
(declare-const |__VERIFIER_assert__cond___16':155:168:173:625:633| Int)
(declare-const main____CPAchecker_TMP_1 Int)
(declare-const |havoc:1| Int)
(declare-const |havoc:2| Int)
(declare-const |havoc:9:61:176:630| Int)
(declare-const |phi_main____CPAchecker_TMP_1:256:257:628:636| Int)
(declare-const |__VERIFIER_assert__cond___15':154:169:174:626:634| Int)
(declare-const |havoc:12:62:258:629:637| Int)
(declare-const |main____CPAchecker_TMP_1':153:167:172:624:632| Int)
(assert (and (<= (+ havoc -1000000) 0) (<= (+ (- havoc) -1000000) 0)
               (<= (+ |havoc:1| -1000000) 0)
               (<= (+ (- |havoc:1|) -1000000) 0)
               (<= (+ |havoc:2| -1000000) 0)
               (<= (+ (- |havoc:2|) -1000000) 0) (< (- havoc) 0)
               (< (- |havoc:1|) 0) (<= (- |havoc:2|) 0) (not (= |havoc:2| 0))
               (<= (+ |havoc:2| (- havoc) 1) 0)
               (not (= (ite (< (+ |havoc:2| (- havoc) -1) 0) 1 0) 0))
               (not (= (ite (<= (+ (- |havoc:2|) 1) 0) 1 0) 0))
               (not (= |havoc:9:61:176:630| 0))
               (not (= (ite (< (+ |havoc:2| (- havoc)) 0) 1 0) 0))
               (not (= (ite (<= (- |havoc:2|) 0) 1 0) 0))
               (or (not (and (<= (- |K:165:166:171:623:631|) 0)
                               (<= |K:165:166:171:623:631| 0)))
                     (= (+ (- main____CPAchecker_TMP_1)
                             |main____CPAchecker_TMP_1':153:167:172:624:632|) 0))
               (or (not (<= (+ (- |K:165:166:171:623:631|) 1) 0))
                     (= |main____CPAchecker_TMP_1':153:167:172:624:632| 0))
               (or (not (and (<= (- |K:165:166:171:623:631|) 0)
                               (<= |K:165:166:171:623:631| 0)))
                     (= (+ (- __VERIFIER_assert__cond___16)
                             |__VERIFIER_assert__cond___16':155:168:173:625:633|) 0))
               (or (not (<= (+ (- |K:165:166:171:623:631|) 1) 0))
                     (= (+ |__VERIFIER_assert__cond___16':155:168:173:625:633|
                             -1) 0))
               (or (not (and (<= (- |K:165:166:171:623:631|) 0)
                               (<= |K:165:166:171:623:631| 0)))
                     (= (+ (- __VERIFIER_assert__cond___15)
                             |__VERIFIER_assert__cond___15':154:169:174:626:634|) 0))
               (or (not (<= (+ (- |K:165:166:171:623:631|) 1) 0))
                     (= (+ |__VERIFIER_assert__cond___15':154:169:174:626:634|
                             -1) 0))
               (or (not (<= (- |K:165:166:171:623:631|) 0))
                     (= (+ |main__cp':152:170:175:627:635|
                             (- |K:165:166:171:623:631|) (- |havoc:2|)) 0))
               (or (and (= |K:165:166:171:623:631| 0)
                          (= (+ __VERIFIER_assert__cond___16
                                  (- |__VERIFIER_assert__cond___16':155:168:173:625:633|)) 0)
                          (= (+ __VERIFIER_assert__cond___15
                                  (- |__VERIFIER_assert__cond___15':154:169:174:626:634|)) 0)
                          (= (+ main____CPAchecker_TMP_1
                                  (- |main____CPAchecker_TMP_1':153:167:172:624:632|)) 0)
                          (= (+ (- |main__cp':152:170:175:627:635|) |havoc:2|) 0))
                     (and (<= (+ (- |K:165:166:171:623:631|) 1) 0)
                            (<= (+ |havoc:2| (- havoc) 2) 0)
                            (<= (+ (- |havoc:2|) 1) 0)
                            (= (+ |__VERIFIER_assert__cond___16':155:168:173:625:633|
                                    -1) 0)
                            (= (+ |__VERIFIER_assert__cond___15':154:169:174:626:634|
                                    -1) 0)
                            (= |main____CPAchecker_TMP_1':153:167:172:624:632| 0)
                            (<= (+ |main__cp':152:170:175:627:635| (- 
                                     havoc) 1) 0)
                            (<= (+ (- |main__cp':152:170:175:627:635|) 2) 0)))
               (<= (- |K:165:166:171:623:631|) 0) (< (- havoc) 0)
               (< (- |main__cp':152:170:175:627:635|) 0)
               (or (and (<= (+ (- |main__cp':152:170:175:627:635|) havoc -1) 0)
                          (<= (+ |main__cp':152:170:175:627:635| (- havoc) 1) 0)
                          (= (+ (- |phi_main____CPAchecker_TMP_1:256:257:628:636|)
                                  |main____CPAchecker_TMP_1':153:167:172:624:632|) 0))
                     (and (or (< (+ |main__cp':152:170:175:627:635| (- 
                                      havoc) 1) 0)
                                (< (+ (- |main__cp':152:170:175:627:635|)
                                        havoc -1) 0))
                            (not (= |havoc:12:62:258:629:637| 0))
                            (= (+ |havoc:12:62:258:629:637|
                                    (- |phi_main____CPAchecker_TMP_1:256:257:628:636|)) 0)))
               (not (= (ite (< (+ |main__cp':152:170:175:627:635| (- havoc)) 0)
                            1 0) 0))
               (= (ite (<= (- |main__cp':152:170:175:627:635|) 0) 1 0) 0)))
(check-sat)
